 C  H                                   
   1.00000000000000     
    21.6906117236305001    0.0000000000000000    0.0000000000000000
     0.0000000000000000   21.6905857541180680    0.0000000000000000
     0.0000000000000000    0.0000000000000000   22.8530346282612804
   C    H 
     2     4
Direct
  0.5051074459705092  0.5051073037383631  0.4714304476643463
  0.4948964901304649  0.4948965895371984  0.5284387601457396
  0.5389646436112159  0.5389640275742025  0.4565049290650265
  0.4799891844694173  0.4799893263385968  0.4374931405118119
  0.4610337871817123  0.4610343642494144  0.5433442892082070
  0.5200022094458845  0.5200020251565860  0.5623905963972717
 
  0.00000000E+00  0.00000000E+00  0.00000000E+00
  0.00000000E+00  0.00000000E+00  0.00000000E+00
  0.00000000E+00  0.00000000E+00  0.00000000E+00
  0.00000000E+00  0.00000000E+00  0.00000000E+00
  0.00000000E+00  0.00000000E+00  0.00000000E+00
  0.00000000E+00  0.00000000E+00  0.00000000E+00
