 O  C                                   
   1.00000000000000     
    20.0000001240222431    0.0000000000000000    0.0000000000000000
     0.0000000000000000   20.0000007207566561    0.0000000000000000
     0.0000000000000000    0.0000000000000000   21.1483929282698142
   O    C 
     1     1
Direct
  0.5000000031005527  0.5000000180189161  0.5271367281343089
  0.4999999968994473  0.4999999819810839  0.4728632718656911
 
  0.00000000E+00  0.00000000E+00  0.00000000E+00
  0.00000000E+00  0.00000000E+00  0.00000000E+00
